100
25 98
23 70
8 67
87 61
28 93
8 22
10 34
73 1
35 18
19 35
86 74
65 30
85 44
31 66
52 32
55 75
2 84
48 68
24 6
88 87
32 16
86 23
19 75
41 60
75 86
13 37
49 93
32 99
83 92
84 3
50 69
80 74
94 54
80 7
18 86
14 73
56 8
59 42
15 69
7 24
1 62
67 61
36 6
65 48
95 15
50 68
56 56
28 33
90 31
61 94
83 25
56 52
1 7
15 18
69 52
99 46
68 65
8 85
54 28
85 55
13 36
72 76
60 15
75 28
1 27
76 2
69 64
94 81
14 79
9 36
23 59
35 10
76 20
38 54
53 33
87 82
86 99
40 12
37 25
89 79
40 19
96 78
37 95
0 50
32 3
2 47
68 52
84 21
94 77
58 42
39 47
30 67
29 69
19 56
62 61
7 5
98 74
14 95
58 9
67 89
